Version identifier: 22.1.0.0 | 2022-03-09 | 1a383f8ce
CPXPARAM_Threads                                 1
CPXPARAM_MIP_Strategy_VariableSelect             3
CPXPARAM_TimeLimit                               599.99815034899996
Found incumbent of value 0.000000 after 0.00 sec. (0.26 ticks)

Root node processing (before b&c):
  Real time             =    0.00 sec. (0.29 ticks)
Sequential b&c:
  Real time             =    0.00 sec. (0.00 ticks)
                          ------------
Total (root+branch&cut) =    0.00 sec. (0.29 ticks)
Version identifier: 22.1.0.0 | 2022-03-09 | 1a383f8ce
CPXPARAM_Threads                                 1
CPXPARAM_MIP_Strategy_VariableSelect             3
CPXPARAM_TimeLimit                               599.98579232500003
Found incumbent of value 0.000000 after 0.00 sec. (0.39 ticks)

Root node processing (before b&c):
  Real time             =    0.00 sec. (0.44 ticks)
Sequential b&c:
  Real time             =    0.00 sec. (0.00 ticks)
                          ------------
Total (root+branch&cut) =    0.00 sec. (0.44 ticks)
Version identifier: 22.1.0.0 | 2022-03-09 | 1a383f8ce
CPXPARAM_Threads                                 1
CPXPARAM_MIP_Strategy_VariableSelect             3
CPXPARAM_TimeLimit                               599.96971004399995
Found incumbent of value 0.000000 after 0.00 sec. (0.45 ticks)

Root node processing (before b&c):
  Real time             =    0.00 sec. (0.51 ticks)
Sequential b&c:
  Real time             =    0.00 sec. (0.00 ticks)
                          ------------
Total (root+branch&cut) =    0.00 sec. (0.51 ticks)
Version identifier: 22.1.0.0 | 2022-03-09 | 1a383f8ce
CPXPARAM_Threads                                 1
CPXPARAM_MIP_Strategy_VariableSelect             3
CPXPARAM_TimeLimit                               599.95140537600003
Tried aggregator 1 time.
MIP Presolve eliminated 18 rows and 867 columns.
MIP Presolve modified 4 coefficients.
Reduced MIP has 2017 rows, 2601 columns, and 22105 nonzeros.
Reduced MIP has 2601 binaries, 0 generals, 0 SOSs, and 0 indicators.
Presolve time = 0.02 sec. (13.40 ticks)
Found incumbent of value 0.000000 after 0.05 sec. (34.77 ticks)

Root node processing (before b&c):
  Real time             =    0.05 sec. (34.90 ticks)
Sequential b&c:
  Real time             =    0.00 sec. (0.00 ticks)
                          ------------
Total (root+branch&cut) =    0.05 sec. (34.90 ticks)
Version identifier: 22.1.0.0 | 2022-03-09 | 1a383f8ce
CPXPARAM_Threads                                 1
CPXPARAM_MIP_Strategy_VariableSelect             3
CPXPARAM_TimeLimit                               599.882570128
Tried aggregator 1 time.
MIP Presolve eliminated 18 rows and 897 columns.
MIP Presolve modified 3 coefficients.
Reduced MIP has 2087 rows, 2691 columns, and 22875 nonzeros.
Reduced MIP has 2691 binaries, 0 generals, 0 SOSs, and 0 indicators.
Presolve time = 0.02 sec. (13.82 ticks)
Probing time = 0.00 sec. (2.68 ticks)
Tried aggregator 1 time.
Detecting symmetries...
Reduced MIP has 2087 rows, 2691 columns, and 22875 nonzeros.
Reduced MIP has 2691 binaries, 0 generals, 0 SOSs, and 0 indicators.
Presolve time = 0.02 sec. (13.50 ticks)
Probing time = 0.00 sec. (2.68 ticks)
Clique table members: 1484.
MIP emphasis: balance optimality and feasibility.
MIP search method: dynamic search.
Parallel mode: none, using 1 thread.
Root relaxation solution time = 0.02 sec. (21.46 ticks)

        Nodes                                         Cuts/
   Node  Left     Objective  IInf  Best Integer    Best Bound    ItCnt     Gap

      0     0        0.0000   123                      0.0000      501         
*     0+    0                            0.0000        0.0000             0.00%
      0     0        cutoff              0.0000        0.0000      501    0.00%
Elapsed time = 0.21 sec. (173.30 ticks, tree = 0.01 MB, solutions = 1)

Root node processing (before b&c):
  Real time             =    0.21 sec. (173.41 ticks)
Sequential b&c:
  Real time             =    0.00 sec. (0.00 ticks)
                          ------------
Total (root+branch&cut) =    0.21 sec. (173.41 ticks)
Version identifier: 22.1.0.0 | 2022-03-09 | 1a383f8ce
CPXPARAM_Threads                                 1
CPXPARAM_MIP_Strategy_VariableSelect             3
CPXPARAM_TimeLimit                               599.65203433900001
Tried aggregator 1 time.
MIP Presolve eliminated 18 rows and 912 columns.
MIP Presolve modified 3 coefficients.
Reduced MIP has 2122 rows, 2736 columns, and 23260 nonzeros.
Reduced MIP has 2736 binaries, 0 generals, 0 SOSs, and 0 indicators.
Presolve time = 0.02 sec. (14.05 ticks)
Probing time = 0.00 sec. (2.70 ticks)
Tried aggregator 1 time.
Detecting symmetries...
Reduced MIP has 2122 rows, 2736 columns, and 23260 nonzeros.
Reduced MIP has 2736 binaries, 0 generals, 0 SOSs, and 0 indicators.
Presolve time = 0.02 sec. (13.72 ticks)
Probing time = 0.00 sec. (2.70 ticks)
Clique table members: 1509.
MIP emphasis: balance optimality and feasibility.
MIP search method: dynamic search.
Parallel mode: none, using 1 thread.
Root relaxation solution time = 0.03 sec. (23.49 ticks)

        Nodes                                         Cuts/
   Node  Left     Objective  IInf  Best Integer    Best Bound    ItCnt     Gap

      0     0        0.0000   108                      0.0000      565         
*     0+    0                            0.0000        0.0000             0.00%
      0     0        cutoff              0.0000        0.0000      565    0.00%
Elapsed time = 0.21 sec. (188.21 ticks, tree = 0.01 MB, solutions = 1)

Root node processing (before b&c):
  Real time             =    0.21 sec. (188.32 ticks)
Sequential b&c:
  Real time             =    0.00 sec. (0.00 ticks)
                          ------------
Total (root+branch&cut) =    0.21 sec. (188.32 ticks)
Version identifier: 22.1.0.0 | 2022-03-09 | 1a383f8ce
CPXPARAM_Threads                                 1
CPXPARAM_MIP_Strategy_VariableSelect             3
CPXPARAM_TimeLimit                               599.41794697900002
Tried aggregator 1 time.
MIP Presolve eliminated 18 rows and 918 columns.
MIP Presolve modified 3 coefficients.
Reduced MIP has 2136 rows, 2754 columns, and 23414 nonzeros.
Reduced MIP has 2754 binaries, 0 generals, 0 SOSs, and 0 indicators.
Presolve time = 0.02 sec. (14.14 ticks)
Probing time = 0.00 sec. (2.70 ticks)
Tried aggregator 1 time.
Detecting symmetries...
Reduced MIP has 2136 rows, 2754 columns, and 23414 nonzeros.
Reduced MIP has 2754 binaries, 0 generals, 0 SOSs, and 0 indicators.
Presolve time = 0.02 sec. (13.82 ticks)
Probing time = 0.00 sec. (2.70 ticks)
Clique table members: 1519.
MIP emphasis: balance optimality and feasibility.
MIP search method: dynamic search.
Parallel mode: none, using 1 thread.
Root relaxation solution time = 0.03 sec. (26.14 ticks)

        Nodes                                         Cuts/
   Node  Left     Objective  IInf  Best Integer    Best Bound    ItCnt     Gap

      0     0        0.0000   177                      0.0000      617         
*     0+    0                            0.0000        0.0000             0.00%
      0     0        cutoff              0.0000        0.0000      617    0.00%
Elapsed time = 0.21 sec. (175.01 ticks, tree = 0.01 MB, solutions = 1)

Root node processing (before b&c):
  Real time             =    0.21 sec. (175.12 ticks)
Sequential b&c:
  Real time             =    0.00 sec. (0.00 ticks)
                          ------------
Total (root+branch&cut) =    0.21 sec. (175.12 ticks)
Version identifier: 22.1.0.0 | 2022-03-09 | 1a383f8ce
CPXPARAM_Threads                                 1
CPXPARAM_MIP_Strategy_VariableSelect             3
CPXPARAM_TimeLimit                               599.18414071400002
Tried aggregator 1 time.
MIP Presolve eliminated 18 rows and 921 columns.
MIP Presolve modified 3 coefficients.
Reduced MIP has 2143 rows, 2763 columns, and 23491 nonzeros.
Reduced MIP has 2763 binaries, 0 generals, 0 SOSs, and 0 indicators.
Presolve time = 0.02 sec. (14.18 ticks)
Probing time = 0.00 sec. (2.70 ticks)
Tried aggregator 1 time.
Detecting symmetries...
Reduced MIP has 2143 rows, 2763 columns, and 23491 nonzeros.
Reduced MIP has 2763 binaries, 0 generals, 0 SOSs, and 0 indicators.
Presolve time = 0.02 sec. (13.85 ticks)
Probing time = 0.00 sec. (2.70 ticks)
Clique table members: 1524.
MIP emphasis: balance optimality and feasibility.
MIP search method: dynamic search.
Parallel mode: none, using 1 thread.
Root relaxation solution time = 0.02 sec. (20.76 ticks)

        Nodes                                         Cuts/
   Node  Left     Objective  IInf  Best Integer    Best Bound    ItCnt     Gap

      0     0        0.0000   198                      0.0000      542         
*     0+    0                            0.0000        0.0000             0.00%
      0     0        cutoff              0.0000        0.0000      542    0.00%
Elapsed time = 0.23 sec. (179.14 ticks, tree = 0.01 MB, solutions = 1)

Root node processing (before b&c):
  Real time             =    0.23 sec. (179.26 ticks)
Sequential b&c:
  Real time             =    0.00 sec. (0.00 ticks)
                          ------------
Total (root+branch&cut) =    0.23 sec. (179.26 ticks)
Version identifier: 22.1.0.0 | 2022-03-09 | 1a383f8ce
CPXPARAM_Threads                                 1
CPXPARAM_MIP_Strategy_VariableSelect             3
CPXPARAM_TimeLimit                               598.93311505099996
Tried aggregator 1 time.
MIP Presolve eliminated 18 rows and 924 columns.
MIP Presolve modified 3 coefficients.
Reduced MIP has 2150 rows, 2772 columns, and 23568 nonzeros.
Reduced MIP has 2772 binaries, 0 generals, 0 SOSs, and 0 indicators.
Presolve time = 0.02 sec. (14.24 ticks)
Probing time = 0.00 sec. (2.70 ticks)
Tried aggregator 1 time.
Detecting symmetries...
Reduced MIP has 2150 rows, 2772 columns, and 23568 nonzeros.
Reduced MIP has 2772 binaries, 0 generals, 0 SOSs, and 0 indicators.
Presolve time = 0.02 sec. (13.91 ticks)
Probing time = 0.00 sec. (2.70 ticks)
Clique table members: 1529.
MIP emphasis: balance optimality and feasibility.
MIP search method: dynamic search.
Parallel mode: none, using 1 thread.
Root relaxation solution time = 0.02 sec. (22.33 ticks)

        Nodes                                         Cuts/
   Node  Left     Objective  IInf  Best Integer    Best Bound    ItCnt     Gap

      0     0        0.0000   195                      0.0000      579         
*     0+    0                            0.0000        0.0000             0.00%
      0     0        cutoff              0.0000        0.0000      579    0.00%
Elapsed time = 0.26 sec. (197.62 ticks, tree = 0.01 MB, solutions = 1)

Root node processing (before b&c):
  Real time             =    0.26 sec. (197.73 ticks)
Sequential b&c:
  Real time             =    0.00 sec. (0.00 ticks)
                          ------------
Total (root+branch&cut) =    0.26 sec. (197.73 ticks)
Primal:	308
Dual:	308
Status:	Optimal
Time:	1.34471
Sequence:
	9
	6
	9
	9
	9
	9
	5
	9
	9
	9
	6
	9
	5
	9
	9
	9
	6
	9
	9
	9
	9
	6
	9
	9
	5
	9
	9
	9
	9
	6
	9
	9
	9
	9
	6
	9
	9
	9
	6
	9
	9
	9
	6
	9
	5
	9
	9
	9
	6
	9
	9
	9
	6
	9
	5
	9
	9
	6
	9
	9
	5
	9
	6
	9
	9
	9
	9
	5
	9
	6
	9
	9
	9
	9
	9
	6
	9
	9
	9
	6
	9
	9
	9
	6
	9
	9
	5
	9
	5
	9
	6
	9
	9
	9
	5
	9
	5
	9
	9
	9
	9
	6
	4
	9
	5
	9
	0
	1
	4
	5
	0
	4
	9
	4
	6
	9
	5
	4
	9
	6
	0
	3
	9
	4
	5
	9
	6
	0
	9
	5
	0
	10
	4
	6
	9
	4
	5
	9
	0
	5
	4
	9
	1
	4
	1
	9
	6
	2
	5
	9
	6
	0
	5
	9
	4
	6
	9
	10
	4
	6
	0
	3
	4
	6
	9
	1
	9
	0
	6
	9
	9
	5
	2
	6
	9
	9
	5
	0
	6
	4
	3
	0
	9
	6
	4
	1
	9
	6
	0
	5
	9
	6
	9
	5
	0
	4
	5
	9
	6
	2
	9
	1
	4
	1
	9
	9
	6
	0
	4
	5
	9
	6
	9
	10
	9
	9
	6
	9
	9
	0
	1
	9
	6
	9
	5
	9
	9
	6
	9
	5
	9
	6
	0
	5
	9
	6
	0
	9
	4
	5
	2
	9
	6
	4
	9
	10
	0
	6
	9
	1
	2
	6
	4
	9
	4
	6
	9
	9
	5
	9
	6
	9
	4
	2
	4
	6
	0
	4
	4
	9
	9
	4
	6
	9
	4
	0
	5
	9
	6
	0
	3
	9
	9
	5
	4
	0
	6
	9
	0
	4
	6
	2
	5
	9
	6
	9
	5
	0
	6
	4
	9
	4
	1
	9
	6
	2
	4
	5
